          14
          10
           1           3          10
           2           3          10
           3           3           9
           4           2          12
           5           2          12
           6           2          12
           7           3          11
           8           3          12
           9           3          12
          10           3          12
          11           1          11
          12           1          11
          13           1          11
          14          10           2
